NAME : XML100_3176_05
DIMENSION : 101
NB_CLUSTERS : 4
CLUSTERING_ALG : KMedoids
CLUSTERING_PARAMS : k(3)
CLUSTERS
1 0
2 2 4 6 13 14 22 26 29 32 33 39 40 46 47 48 49 53 54 56 57 58 59 61 67 68 78 80 81 83 91 94 98
3 1 8 10 11 28 34 37 38 41 42 43 51 52 55 60 62 64 66 73 74 76 77 82 86 87 93 96 97 100
4 3 5 7 9 12 15 16 17 18 19 20 21 23 24 25 27 30 31 35 36 44 45 50 63 65 69 70 71 72 75 79 84 85 88 89 90 92 95 99
EOF